NAME: test1934
TYPE: TSP
DIMENSION: 11
EDGE_WEIGHT_TYPE: EUC_2D
NODE_COORD_SECTION
1 30.458981497885475 80.73777836451657
2 8.069488391569369 69.12228026586243
3 58.93741128306238 80.83730710646334
4 12.130767142610244 10.063343133305224
5 75.46799084452567 52.915409834013595
6 10.005587972136842 81.96016909451733
7 93.17960828846944 58.93005195102246
8 86.15843152895202 17.848445880167986
9 34.594177757768705 52.94865128592203
10 7.337733258689871 57.11229014420305
11 23.636227401087663 12.672648309626256
EOF
